solution status: optimal solution found
objective value:                     138942.642857141
d11(0,0)                                            1 	(obj:0)
d11(1,1)                                            1 	(obj:0)
d11(1,2)                                            1 	(obj:0)
d11(1,3)                                            1 	(obj:0)
d11(2,4)                                            1 	(obj:0)
d11(2,5)                                            1 	(obj:0)
d11(2,6)                                            1 	(obj:0)
d11(2,7)                                            1 	(obj:0)
d11(2,8)                                            1 	(obj:0)
d11(2,10)                                           1 	(obj:0)
d11(2,11)                                           1 	(obj:0)
d11(2,12)                                           1 	(obj:0)
d11(3,13)                                           1 	(obj:0)
d11(3,14)                                           1 	(obj:0)
d11(3,16)                                           1 	(obj:0)
d11(3,17)                                           1 	(obj:0)
d11(3,19)                                           1 	(obj:0)
d11(3,20)                                           1 	(obj:0)
d11(3,22)                                           1 	(obj:0)
d11(3,23)                                           1 	(obj:0)
d11(3,25)                                           1 	(obj:0)
d11(3,26)                                           1 	(obj:0)
d11(3,28)                                           1 	(obj:0)
d11(3,29)                                           1 	(obj:0)
d11(3,31)                                           1 	(obj:0)
d11(3,32)                                           1 	(obj:0)
d11(3,34)                                           1 	(obj:0)
d11(3,35)                                           1 	(obj:0)
d11(3,37)                                           1 	(obj:0)
d11(3,38)                                           1 	(obj:0)
d12(3,15)                                           1 	(obj:0)
d12(3,21)                                           1 	(obj:0)
d12(3,24)                                           1 	(obj:0)
d12(3,27)                                           1 	(obj:0)
d12(3,30)                                           1 	(obj:0)
d12(3,33)                                           1 	(obj:0)
d12(3,36)                                           1 	(obj:0)
d12(3,39)                                           1 	(obj:0)
d21(3,13)                                           1 	(obj:0)
d21(3,14)                                           1 	(obj:0)
d21(3,15)                                           1 	(obj:0)
d21(3,16)                                           1 	(obj:0)
d21(3,17)                                           1 	(obj:0)
d21(3,19)                                           1 	(obj:0)
d21(3,22)                                           1 	(obj:0)
d21(3,23)                                           1 	(obj:0)
d21(3,25)                                           1 	(obj:0)
d21(3,31)                                           1 	(obj:0)
STE(1,1)                             11641.1558332681 	(obj:0)
STE(0,0)                                        15750 	(obj:0)
STE(1,2)                             12637.9218366014 	(obj:0)
STE(1,3)                             13855.3740399348 	(obj:0)
STE(2,4)                             8166.93762660145 	(obj:0)
STE(2,5)                             9163.70362993474 	(obj:0)
STE(2,6)                             10381.1558332681 	(obj:0)
STE(2,7)                             9163.70362993474 	(obj:0)
STE(2,8)                              10160.469633268 	(obj:0)
STE(2,9)                             11377.9218366014 	(obj:0)
STE(2,10)                            10381.1558332681 	(obj:0)
STE(2,11)                            11377.9218366014 	(obj:0)
STE(2,12)                            12595.3740399348 	(obj:0)
STE(3,13)                            4884.70199000013 	(obj:0)
STE(3,14)                            5881.46799333342 	(obj:0)
STE(3,15)                            6906.93762660144 	(obj:0)
STE(3,16)                            5881.46799333342 	(obj:0)
STE(3,17)                            6878.23399666671 	(obj:0)
STE(3,18)                            7903.70362993474 	(obj:0)
STE(3,19)                             7098.9201966668 	(obj:0)
STE(3,20)                            8095.68620000009 	(obj:0)
STE(3,21)                            9121.15583326812 	(obj:0)
STE(3,22)                            5881.46799333342 	(obj:0)
STE(3,23)                            6878.23399666671 	(obj:0)
STE(3,24)                            7903.70362993474 	(obj:0)
STE(3,25)                            6878.23399666671 	(obj:0)
STE(3,26)                                        7875 	(obj:0)
STE(3,27)                            8900.46963326803 	(obj:0)
STE(3,28)                            8095.68620000009 	(obj:0)
STE(3,29)                            9092.45220333338 	(obj:0)
STE(3,30)                            10117.9218366014 	(obj:0)
STE(3,31)                             7098.9201966668 	(obj:0)
STE(3,32)                            8095.68620000009 	(obj:0)
STE(3,33)                            9121.15583326812 	(obj:0)
STE(3,34)                            8095.68620000009 	(obj:0)
STE(3,35)                            9092.45220333338 	(obj:0)
STE(3,36)                            10117.9218366014 	(obj:0)
STE(3,37)                            9313.13840333347 	(obj:0)
STE(3,38)                            10309.9044066668 	(obj:0)
STE(3,39)                            11335.3740399348 	(obj:0)
y1(3,23)                             922.922669941229 	(obj:0)
y1(3,25)                             1820.01207294119 	(obj:0)
y1(3,26)                             922.922669941229 	(obj:0)
y1(3,28)                             1820.01207294119 	(obj:0)
y1(3,29)                             922.922669941229 	(obj:0)
y1(3,31)                             1820.01207294119 	(obj:0)
y1(3,32)                             922.922669941229 	(obj:0)
y1(3,34)                             1820.01207294119 	(obj:0)
y1(3,35)                              922.92266994123 	(obj:0)
y1(3,37)                             1820.01207294119 	(obj:0)
y1(3,38)                             922.922669941229 	(obj:0)
BG(3)                                1028.25247314583 	(obj:10)
AVE(1)                               3199.95851117552 	(obj:0)
WB(2)                                3265.15049132519 	(obj:0)
AVE(2)                               3265.15049132519 	(obj:0)
AVE(3)                               3291.35535332476 	(obj:0)
WG(1)                                3199.95851117552 	(obj:10)
WG(3)                                3291.35535332476 	(obj:10)
BG(1)                                1878.77959806803 	(obj:10)
BG(2)                                4495.91834999999 	(obj:10)
y1(1,1)                              2563.95975005869 	(obj:0)
y1(1,2)                              1666.87034705873 	(obj:0)
y1(1,3)                               571.16336405869 	(obj:0)
y1(2,4)                                   1992.796386 	(obj:0)
y1(2,5)                              1095.70698300004 	(obj:0)
y1(2,7)                                   1992.796386 	(obj:0)
y1(2,8)                              1095.70698300004 	(obj:0)
y1(2,10)                                  1992.796386 	(obj:0)
y1(2,11)                             1095.70698300004 	(obj:0)
y1(3,13)                             1820.01207294119 	(obj:0)
y1(3,14)                             922.922669941229 	(obj:0)
y1(3,16)                             1820.01207294119 	(obj:0)
y1(3,17)                             922.922669941229 	(obj:0)
y1(3,19)                             1820.01207294119 	(obj:0)
y1(3,20)                             922.922669941229 	(obj:0)
y1(3,22)                             1820.01207294119 	(obj:0)
